
<<< setup


<<< generate

Version identifier: 22.1.1.0 | 2022-11-28 | 9160aff4d
CPXPARAM_TimeLimit                               1800
Found incumbent of value 0.000000 after 0.01 sec. (15.72 ticks)
Tried aggregator 1 time.
MIP Presolve eliminated 989 rows and 0 columns.
Reduced MIP has 608855 rows, 488566 columns, and 2191878 nonzeros.
Reduced MIP has 487578 binaries, 988 generals, 0 SOSs, and 0 indicators.
Presolve time = 0.43 sec. (812.53 ticks)
Probing time = 0.22 sec. (134.41 ticks)
Tried aggregator 1 time.
Detecting symmetries...
Elapsed time for symmetry detection = 18.39 sec. (10000.65 ticks)
Elapsed time for symmetry detection = 36.74 sec. (20002.32 ticks)
Elapsed time for symmetry detection = 53.47 sec. (30008.61 ticks)
Found 1.656721e+626 symmetric permutations.
Reduced MIP has 608855 rows, 488566 columns, and 2191878 nonzeros.
Reduced MIP has 487578 binaries, 988 generals, 0 SOSs, and 0 indicators.
Presolve time = 62.39 sec. (36351.29 ticks)
Probing time = 0.18 sec. (134.36 ticks)
Clique table members: 12413.
MIP emphasis: balance optimality and feasibility.
MIP search method: dynamic search.
Parallel mode: deterministic, using up to 8 threads.
Root relaxation solution time = 97.69 sec. (79549.55 ticks)

        Nodes                                         Cuts/
   Node  Left     Objective  IInf  Best Integer    Best Bound    ItCnt     Gap

*     0+    0                            0.0000    80000.0000              --- 
*     0+    0                         8464.0000    80000.0000           845.18%
      0     0    80000.0000 145403     8464.0000    80000.0000   216546  845.18%
*     0+    0                        15201.0000    80000.0000           426.28%
      0     0    80000.0000 41440    15201.0000    Cuts: 2725   230929  426.28%
      0     0    80000.0000 43148    15201.0000    Cuts: 6144   247289  426.28%
      0     0    80000.0000 23395    15201.0000     Cuts: 288   254082  426.28%
*     0+    0                        15217.0000    80000.0000           425.73%
*     0+    0                        18181.0000    80000.0000           340.02%
      0     0        cutoff          18181.0000    80000.0000   254082  340.02%
      0     0    80000.0000 23532    18181.0000    Cuts: 2938   261577  340.02%
*     0+    0                        35317.0000    80000.0000           126.52%
      0     2    80000.0000 17863    35317.0000    80000.0000   261577  126.52%
Elapsed time = 964.48 sec. (1353212.72 ticks, tree = 0.02 MB, solutions = 6)
      1     3    80000.0000 18059    35317.0000    80000.0000   267640  126.52%
      2     3    80000.0000 19145    35317.0000    80000.0000   279750  126.52%
      3     4    80000.0000 18465    35317.0000    80000.0000   273820  126.52%
      4     5    80000.0000 31801    35317.0000    80000.0000   329043  126.52%
      5     5    80000.0000 26114    35317.0000    80000.0000   321003  126.52%
      6     6    80000.0000 27499    35317.0000    80000.0000   330663  126.52%
      7     4    80000.0000 31737    35317.0000    80000.0000   314786  126.52%
Starting limited solution polishing.
      8     7    80000.0000 33420    35317.0000    80000.0000   347425  126.52%
      9    10    80000.0000 31038    35317.0000    80000.0000   460103  126.52%
     10     6    80000.0000 19054    35317.0000    80000.0000   300746  126.52%
Elapsed time = 1696.86 sec. (1788052.46 ticks, tree = 0.02 MB, solutions = 6)
     11    11    80000.0000 29816    35317.0000    80000.0000   476096  126.52%
     12    12    80000.0000 29829    35317.0000    80000.0000   476249  126.52%
     14    13    80000.0000 29565    35317.0000    80000.0000   479573  126.52%
     16    15    80000.0000 29553    35317.0000    80000.0000   479595  126.52%
     18    17    80000.0000 28613    35317.0000    80000.0000   479853  126.52%
     19    18    80000.0000 28072    35317.0000    80000.0000   480585  126.52%
     20    14    80000.0000 17181    35317.0000    80000.0000   489594  126.52%

Clique cuts applied:  524
Implied bound cuts applied:  468
Mixed integer rounding cuts applied:  912
Zero-half cuts applied:  60

Root node processing (before b&c):
  Real time             =  963.98 sec. (1352855.87 ticks)
Parallel b&c, 8 threads:
  Real time             =  836.49 sec. (544650.62 ticks)
  Sync time (average)   =  297.99 sec.
  Wait time (average)   =    0.00 sec.
                          ------------
Total (root+branch&cut) = 1800.47 sec. (1897506.48 ticks)

<<< solve


OBJECTIVE: 35317

<<< post process


<<< done

